proyfinal/src/viki/013/experimentInOfficeAgust.take6.output/02f602a9-6266-4ae9-b658-4472f1a661c3.als.dat
{'cnf.clauses': '118081',
 'cnf.totvars': '69608',
 'conflict literals': '62',
 'conflicts': '20',
 'decisions': '6642',
 'memused.mb': '15.13',
 'outcome': 'UNSAT',
 'propagations': '31062',
 'restarts': '1',
 'solver.msecs': 27,
 'task.msecs': 78}
