proyfinal/src/viki/013/experimentInOfficeAgust.take6.output/02f602a9-6266-4ae9-b658-4472f1a661c3.als.out
Reading from standard input... Use '--help' for help.
============================[ Problem Statistics ]=============================
|                                                                             |
|  Number of variables:         69608                                         |
|  Number of clauses:          118081                                         |
|  Parse time:                   0.02 s                                       |
|                                                                             |
============================[ Search Statistics ]==============================
| Conflicts |          ORIGINAL         |          LEARNT          | Progress |
|           |    Vars  Clauses Literals |    Limit  Clauses Lit/Cl |          |
===============================================================================
===============================================================================
restarts              : 1
conflicts             : 20             (737 /sec)
decisions             : 6642           (0.00 % random) (244722 /sec)
propagations          : 31062          (1144468 /sec)
conflict literals     : 62             (0.00 % deleted)
Memory used           : 15.13 MB
CPU time              : 0.027141 s

UNSATISFIABLE
